data/mip_solutions/furman_sahinidis/transshipment/15sp-tkm_cplex.sol
Elapsed time: 0.0695090293884
Nodes explored: 95
Upper bound: 19.0
Lower bound: 19.0
y[0,0]=1
y[0,4]=1
y[1,2]=1
y[1,3]=1
y[2,0]=1
y[2,1]=1
y[3,4]=1
y[4,4]=1
y[5,4]=1
y[6,0]=1
y[6,3]=1
y[6,4]=1
y[7,0]=1
y[7,4]=1
y[7,5]=1
y[8,5]=1
y[8,6]=1
y[9,0]=1
y[9,2]=1
q[0,0,6]=35.2
q[0,0,8]=47.7
q[0,0,9]=5.3
q[0,0,11]=90.1
q[0,0,12]=58.3
q[0,0,13]=121.9
q[0,4,6]=13.3
q[0,4,7]=280.1
q[1,2,4]=625.6
q[1,3,4]=165.6
q[1,3,5]=110.4
q[1,3,6]=73.6
q[1,3,7]=18.4
q[1,3,8]=165.6
q[2,0,3]=339.6
q[2,0,5]=339.6
q[2,0,6]=53.4
q[2,1,3]=540.5
q[2,1,4]=2053.9
q[3,4,6]=1107.1
q[3,4,8]=246.9
q[4,4,8]=1346.0
q[5,4,8]=928.0
q[6,0,9]=51.3
q[6,0,10]=177.4
q[6,3,9]=18.4
q[6,3,10]=184.0
q[6,3,11]=128.8
q[6,4,9]=280.1
q[7,0,10]=388.6
q[7,0,11]=306.1
q[7,0,12]=564.3
q[7,0,13]=1179.9
q[7,4,10]=2801.0
q[7,5,11]=2198.0
q[7,5,12]=3454.0
q[7,5,13]=1108.1
q[8,5,13]=6113.9
q[8,6,14]=1338.1
q[9,0,2]=622.6
q[9,0,4]=1075.4
q[9,0,6]=137.8
q[9,0,7]=56.6
q[9,0,8]=461.7
q[9,2,4]=2244.4
q[9,2,5]=1230.0
r[0,2]=10.6
r[0,3]=137.8
r[0,4]=169.6
r[0,5]=270.3
r[0,6]=302.1
r[0,7]=274.8
r[0,11]=53.0
r[1,3]=403.2
r[1,4]=504.0
r[1,5]=32.0
r[1,6]=22.4
r[1,7]=16.0
r[1,8]=14.4
r[2,4]=2446.9
r[2,5]=393.0
r[2,6]=53.4
r[3,5]=1354.0
r[3,6]=1354.0
r[3,7]=246.9
r[3,8]=246.9
r[4,8]=134.6
r[6,10]=490.2
r[6,11]=128.8
r[7,11]=8810.4
r[7,12]=6306.3
r[7,13]=2288.0
r[8,14]=1338.1
r[9,1]=5828.5
r[9,2]=5828.5
r[9,3]=5205.9
r[9,4]=5205.9
r[9,5]=1886.1
r[9,6]=656.1
r[9,7]=518.3
r[9,8]=461.7
